(3,3) carbon nanotube structure generated by TubeASP. Author: R.G.A. Veiga, Univ
1.0
        15.0849995613         0.0000000000         0.0000000000
        0.0000000000         15.0849995613         0.0000000000
        0.0000000000         0.0000000000         2.46
    C
   12
Cartesian
     4.576499484         2.542499781         1.927599799
     4.100599723         3.849899773         1.927599799
     1.525499929         4.303999815         1.927599799
     0.631199837         3.238199811         1.927599799
     1.525499929         0.780999747         1.927599799
     2.895699782         0.539399910         1.927599799
     3.559499632         4.303999815         3.157399763
     2.189299780         4.545599500         3.157399763
     0.508499926         2.542499781         3.157399763
     0.984399838         1.235099788         3.157399763
     3.559499632         0.780999747         3.157399763
     4.453799724         1.846799750         3.157399763
