num_bands =  120  ! set to NBANDS by VASP
num_wann  =  48

# no fermi_E adjustment here

!min of outer window
dis_win_min = -30.0000
dis_win_max = 30.0000

# Fermi= -2.3484
!inner
dis_froz_min = CONTENT1
dis_froz_max = CONTENT2
write_hr = .true.
write_xyz=.True.

kmesh_tol = 1e-8
search_shells=24
dis_num_iter= 200
dis_conv_tol=1e-10
num_iter=0
iprint=2

begin projections
C: l=0
C: l=1
end projections


#Bandstructure plot
#restart         =  plot
bands_plot      =  true
#fermi_energy = 7.9099
#fermi_surface_plot = true
begin kpoint_path
Z     0.0000000000   0.0000000000   0.5000000000            G   0.0000000000   0.0000000000   0.0000000000       
G     0.0000000000   0.0000000000   0.0000000000            X   0.5000000000   0.0000000000   0.0000000000
G     0.0000000000   0.0000000000   0.0000000000            Y   0.0000000000   0.5000000000   0.0000000000
end kpoint_path
bands_num_points 101
bands_plot_format gnuplot xmgrace


begin unit_cell_cart
     15.0849995613         0.0000000000         0.0000000000
        0.0000000000         15.0849995613         0.0000000000
        0.0000000000         0.0000000000         2.46
end unit_cell_cart

begin atoms_cart
C     4.576499484         2.542499781         1.927599799
C     4.100599723         3.849899773         1.927599799
C     1.525499929         4.303999815         1.927599799
C     0.631199837         3.238199811         1.927599799
C     1.525499929         0.780999747         1.927599799
C     2.895699782         0.539399910         1.927599799
C     3.559499632         4.303999815         3.157399763
C     2.189299780         4.545599500         3.157399763
C     0.508499926         2.542499781         3.157399763
C     0.984399838         1.235099788         3.157399763
C     3.559499632         0.780999747         3.157399763
C     4.453799724         1.846799750         3.157399763
end atoms_cart

mp_grid =    1    1    14
begin kpoints
      0.000000000000      0.000000000000      0.000000000000
      0.000000000000      0.000000000000      0.071428571429
      0.000000000000      0.000000000000      0.142857142857
      0.000000000000      0.000000000000      0.214285714286
      0.000000000000      0.000000000000      0.285714285714
      0.000000000000      0.000000000000      0.357142857143
      0.000000000000      0.000000000000      0.428571428571
      0.000000000000      0.000000000000      0.500000000000
      0.000000000000      0.000000000000     -0.428571428571
      0.000000000000      0.000000000000     -0.357142857143
      0.000000000000      0.000000000000     -0.285714285714
      0.000000000000      0.000000000000     -0.214285714286
      0.000000000000      0.000000000000     -0.142857142857
      0.000000000000      0.000000000000     -0.071428571429
end kpoints
