C16
1.0
15.000000 0.000000 0.000000
0.000000 15.000000 0.000000
0.000000 0.000000 4.261000
C
16
direct
0.104387 0.000000 0.126085 C
0.073813 0.073813 0.292713 C
0.000000 0.104387 0.126085 C
-0.073813 0.073813 0.292713 C
-0.104387 0.000000 0.126085 C
-0.073813 -0.073813 0.292713 C
0.000000 -0.104387 0.126085 C
0.073813 -0.073813 0.292713 C
0.073813 0.073813 0.625968 C
0.000000 0.104387 0.792596 C
-0.073813 0.073813 0.625968 C
-0.104387 0.000000 0.792596 C
-0.073813 -0.073813 0.625968 C
0.000000 -0.104387 0.792596 C
0.073813 -0.073813 0.625968 C
0.104387 0.000000 0.792596 C
