K-Path Generated by VASPKIT.
   120
Line-Mode
Reciprocal
   0.0000000000   0.0000000000   0.5000000000     Z              
   0.0000000000   0.0000000000   0.0000000000     GAMMA
