(4,0) carbon nanotube structure generated by TubeASP. Author: R.G.A. Veiga, Univ
1.0
        15.000000000         0.0000000000         0.0000000000
        0.0000000000         15.000000000         0.0000000000
        0.0000000000         0.0000000000         4.2610000000
    C
   16
Cartesian
     3.523049690         1.957249880         0.537249950
     3.064449910         3.064449910         1.247249915
     1.957249880         3.523049690         0.537249950
     0.850049849         3.064449910         1.247249915
     0.391449953         1.957249880         0.537249950
     0.850049849         0.850049849         1.247249915
     1.957249880         0.391449953         0.537249950
     3.064449910         0.850049849         1.247249915
     3.064449910         3.064449910         2.667250078
     1.957249880         3.523049690         3.377249809
     0.850049849         3.064449910         2.667250078
     0.391449953         1.957249880         3.377249809
     0.850049849         0.850049849         2.667250078
     1.957249880         0.391449953         3.377249809
     3.064449910         0.850049849         2.667250078
     3.523049690         1.957249880         3.377249809
