(5,5) carbon nanotube structure
1.0
16.000  0.000  0.000000
 0.000 16.000  0.000000
 0.000  0.000  2.462800
    C
    20
Cartesian
      3.378034423     -0.712837316     -0.615700000  C
      3.378034423      0.712837316     -0.615700000  C
      1.717153078      2.957521008     -0.615700000  C
      0.359290473      3.390555052     -0.615700000  C
     -2.303060204      2.540325691     -0.615700000  C
     -3.151822438      1.395018907     -0.615700000  C
     -3.151822438     -1.395018907     -0.615700000  C
     -2.303060204     -2.540325691     -0.615700000  C
      0.359290473     -3.390555052     -0.615700000  C
      1.717153078     -2.957521008     -0.615700000  C
      3.151822438     -1.395018907      0.615700000  C
      3.151822438      1.395018907      0.615700000  C
      2.303060204      2.540325691      0.615700000  C
     -0.359290473      3.390555052      0.615700000  C
     -1.717153078      2.957521008      0.615700000  C
     -3.378034423      0.712837316      0.615700000  C
     -3.378034423     -0.712837316      0.615700000  C
     -1.717153078     -2.957521008      0.615700000  C
     -0.359290473     -3.390555052      0.615700000  C
      2.303060204     -2.540325691      0.615700000  C