(3,3) carbon nanotube structure generated by TubeASP. Author: R.G.A. Veiga, Univ
1.0
        15.0849995613         0.0000000000         0.0000000000
        0.0000000000         15.0849995613         0.0000000000
        0.0000000000         0.0000000000         2.46
    C
   30
Cartesian
    2.22331387       0.03763001       1.92514552
    1.72600524       1.39203181       1.92686242
   -1.15348390       1.91379206       1.92578626
   -2.08282075       0.80551125       1.92820580
   -1.08334635      -1.94952709       1.92664655
    0.34818779      -2.19635472       1.92439782
    1.08543474       1.95801670       3.15513177
   -0.34423232       2.19146460       3.15738785
   -2.21883929      -0.03754208       3.15618867
   -1.74597183      -1.40763290       3.15731143
    1.15629104      -1.91641764       3.15616498
    2.08058329      -0.80751163       3.15388208
    2.05781401       0.95881822       1.89747012
   -1.99341963       1.52144693       1.94344216
   -0.26016000      -2.34813346       1.91007753
    2.00641005      -0.52413879       2.66034557
    1.61375809       1.59606429       2.50308410
   -0.73483123       1.98647843       2.80839187
   -2.18474396       0.45433532       2.22750994
   -1.47546859      -1.65481364       2.87158837
    0.66109577      -2.00583855       2.37238815
    0.30944330       2.08611887       3.23511043
   -2.00114150      -1.06334021       3.12519326
    1.83008031      -1.29175998       3.31109171
    2.01498271      -0.60315011       3.67153393
    1.57723872       1.61253790       3.85637848
   -0.68972808       2.00318582       3.53361559
   -2.14861012       0.48115537       4.11156256
   -1.43979632      -1.65223514       3.49968019
    0.75059089      -1.95801030       3.99268384
     
